p cnf 128 896
1 2 3 4 0
5 6 7 8 0
9 10 11 12 0
13 14 15 16 0
17 18 19 20 0
21 22 23 24 0
25 26 27 28 0
29 30 31 32 0
33 34 35 36 0
37 38 39 40 0
41 42 43 44 0
45 46 47 48 0
49 50 51 52 0
53 54 55 56 0
57 58 59 60 0
61 62 63 64 0
65 66 67 68 0
69 70 71 72 0
73 74 75 76 0
77 78 79 80 0
81 82 83 84 0
85 86 87 88 0
89 90 91 92 0
93 94 95 96 0
97 98 99 100 0
101 102 103 104 0
105 106 107 108 0
109 110 111 112 0
113 114 115 116 0
117 118 119 120 0
121 122 123 124 0
125 126 127 128 0
-2 -1 0
-3 -1 0
-3 -2 0
-4 -1 0
-4 -2 0
-4 -3 0
-6 -5 0
-7 -5 0
-7 -6 0
-8 -5 0
-8 -6 0
-8 -7 0
-10 -9 0
-11 -9 0
-11 -10 0
-12 -9 0
-12 -10 0
-12 -11 0
-14 -13 0
-15 -13 0
-15 -14 0
-16 -13 0
-16 -14 0
-16 -15 0
-18 -17 0
-19 -17 0
-19 -18 0
-20 -17 0
-20 -18 0
-20 -19 0
-22 -21 0
-23 -21 0
-23 -22 0
-24 -21 0
-24 -22 0
-24 -23 0
-26 -25 0
-27 -25 0
-27 -26 0
-28 -25 0
-28 -26 0
-28 -27 0
-30 -29 0
-31 -29 0
-31 -30 0
-32 -29 0
-32 -30 0
-32 -31 0
-34 -33 0
-35 -33 0
-35 -34 0
-36 -33 0
-36 -34 0
-36 -35 0
-38 -37 0
-39 -37 0
-39 -38 0
-40 -37 0
-40 -38 0
-40 -39 0
-42 -41 0
-43 -41 0
-43 -42 0
-44 -41 0
-44 -42 0
-44 -43 0
-46 -45 0
-47 -45 0
-47 -46 0
-48 -45 0
-48 -46 0
-48 -47 0
-50 -49 0
-51 -49 0
-51 -50 0
-52 -49 0
-52 -50 0
-52 -51 0
-54 -53 0
-55 -53 0
-55 -54 0
-56 -53 0
-56 -54 0
-56 -55 0
-58 -57 0
-59 -57 0
-59 -58 0
-60 -57 0
-60 -58 0
-60 -59 0
-62 -61 0
-63 -61 0
-63 -62 0
-64 -61 0
-64 -62 0
-64 -63 0
-66 -65 0
-67 -65 0
-67 -66 0
-68 -65 0
-68 -66 0
-68 -67 0
-70 -69 0
-71 -69 0
-71 -70 0
-72 -69 0
-72 -70 0
-72 -71 0
-74 -73 0
-75 -73 0
-75 -74 0
-76 -73 0
-76 -74 0
-76 -75 0
-78 -77 0
-79 -77 0
-79 -78 0
-80 -77 0
-80 -78 0
-80 -79 0
-82 -81 0
-83 -81 0
-83 -82 0
-84 -81 0
-84 -82 0
-84 -83 0
-86 -85 0
-87 -85 0
-87 -86 0
-88 -85 0
-88 -86 0
-88 -87 0
-90 -89 0
-91 -89 0
-91 -90 0
-92 -89 0
-92 -90 0
-92 -91 0
-94 -93 0
-95 -93 0
-95 -94 0
-96 -93 0
-96 -94 0
-96 -95 0
-98 -97 0
-99 -97 0
-99 -98 0
-100 -97 0
-100 -98 0
-100 -99 0
-102 -101 0
-103 -101 0
-103 -102 0
-104 -101 0
-104 -102 0
-104 -103 0
-106 -105 0
-107 -105 0
-107 -106 0
-108 -105 0
-108 -106 0
-108 -107 0
-110 -109 0
-111 -109 0
-111 -110 0
-112 -109 0
-112 -110 0
-112 -111 0
-114 -113 0
-115 -113 0
-115 -114 0
-116 -113 0
-116 -114 0
-116 -115 0
-118 -117 0
-119 -117 0
-119 -118 0
-120 -117 0
-120 -118 0
-120 -119 0
-122 -121 0
-123 -121 0
-123 -122 0
-124 -121 0
-124 -122 0
-124 -123 0
-126 -125 0
-127 -125 0
-127 -126 0
-128 -125 0
-128 -126 0
-128 -127 0
-37 -33 -5 -1 0
-38 -34 -6 -2 0
-39 -35 -7 -3 0
-40 -36 -8 -4 0
-41 -33 -9 -1 0
-42 -34 -10 -2 0
-43 -35 -11 -3 0
-44 -36 -12 -4 0
-41 -37 -9 -5 0
-42 -38 -10 -6 0
-43 -39 -11 -7 0
-44 -40 -12 -8 0
-45 -33 -13 -1 0
-46 -34 -14 -2 0
-47 -35 -15 -3 0
-48 -36 -16 -4 0
-45 -37 -13 -5 0
-46 -38 -14 -6 0
-47 -39 -15 -7 0
-48 -40 -16 -8 0
-45 -41 -13 -9 0
-46 -42 -14 -10 0
-47 -43 -15 -11 0
-48 -44 -16 -12 0
-49 -33 -17 -1 0
-50 -34 -18 -2 0
-51 -35 -19 -3 0
-52 -36 -20 -4 0
-49 -37 -17 -5 0
-50 -38 -18 -6 0
-51 -39 -19 -7 0
-52 -40 -20 -8 0
-49 -41 -17 -9 0
-50 -42 -18 -10 0
-51 -43 -19 -11 0
-52 -44 -20 -12 0
-49 -45 -17 -13 0
-50 -46 -18 -14 0
-51 -47 -19 -15 0
-52 -48 -20 -16 0
-53 -33 -21 -1 0
-54 -34 -22 -2 0
-55 -35 -23 -3 0
-56 -36 -24 -4 0
-53 -37 -21 -5 0
-54 -38 -22 -6 0
-55 -39 -23 -7 0
-56 -40 -24 -8 0
-53 -41 -21 -9 0
-54 -42 -22 -10 0
-55 -43 -23 -11 0
-56 -44 -24 -12 0
-53 -45 -21 -13 0
-54 -46 -22 -14 0
-55 -47 -23 -15 0
-56 -48 -24 -16 0
-53 -49 -21 -17 0
-54 -50 -22 -18 0
-55 -51 -23 -19 0
-56 -52 -24 -20 0
-57 -33 -25 -1 0
-58 -34 -26 -2 0
-59 -35 -27 -3 0
-60 -36 -28 -4 0
-57 -37 -25 -5 0
-58 -38 -26 -6 0
-59 -39 -27 -7 0
-60 -40 -28 -8 0
-57 -41 -25 -9 0
-58 -42 -26 -10 0
-59 -43 -27 -11 0
-60 -44 -28 -12 0
-57 -45 -25 -13 0
-58 -46 -26 -14 0
-59 -47 -27 -15 0
-60 -48 -28 -16 0
-57 -49 -25 -17 0
-58 -50 -26 -18 0
-59 -51 -27 -19 0
-60 -52 -28 -20 0
-57 -53 -25 -21 0
-58 -54 -26 -22 0
-59 -55 -27 -23 0
-60 -56 -28 -24 0
-61 -33 -29 -1 0
-62 -34 -30 -2 0
-63 -35 -31 -3 0
-64 -36 -32 -4 0
-61 -37 -29 -5 0
-62 -38 -30 -6 0
-63 -39 -31 -7 0
-64 -40 -32 -8 0
-61 -41 -29 -9 0
-62 -42 -30 -10 0
-63 -43 -31 -11 0
-64 -44 -32 -12 0
-61 -45 -29 -13 0
-62 -46 -30 -14 0
-63 -47 -31 -15 0
-64 -48 -32 -16 0
-61 -49 -29 -17 0
-62 -50 -30 -18 0
-63 -51 -31 -19 0
-64 -52 -32 -20 0
-61 -53 -29 -21 0
-62 -54 -30 -22 0
-63 -55 -31 -23 0
-64 -56 -32 -24 0
-61 -57 -29 -25 0
-62 -58 -30 -26 0
-63 -59 -31 -27 0
-64 -60 -32 -28 0
-69 -65 -5 -1 0
-70 -66 -6 -2 0
-71 -67 -7 -3 0
-72 -68 -8 -4 0
-73 -65 -9 -1 0
-74 -66 -10 -2 0
-75 -67 -11 -3 0
-76 -68 -12 -4 0
-73 -69 -9 -5 0
-74 -70 -10 -6 0
-75 -71 -11 -7 0
-76 -72 -12 -8 0
-77 -65 -13 -1 0
-78 -66 -14 -2 0
-79 -67 -15 -3 0
-80 -68 -16 -4 0
-77 -69 -13 -5 0
-78 -70 -14 -6 0
-79 -71 -15 -7 0
-80 -72 -16 -8 0
-77 -73 -13 -9 0
-78 -74 -14 -10 0
-79 -75 -15 -11 0
-80 -76 -16 -12 0
-81 -65 -17 -1 0
-82 -66 -18 -2 0
-83 -67 -19 -3 0
-84 -68 -20 -4 0
-81 -69 -17 -5 0
-82 -70 -18 -6 0
-83 -71 -19 -7 0
-84 -72 -20 -8 0
-81 -73 -17 -9 0
-82 -74 -18 -10 0
-83 -75 -19 -11 0
-84 -76 -20 -12 0
-81 -77 -17 -13 0
-82 -78 -18 -14 0
-83 -79 -19 -15 0
-84 -80 -20 -16 0
-85 -65 -21 -1 0
-86 -66 -22 -2 0
-87 -67 -23 -3 0
-88 -68 -24 -4 0
-85 -69 -21 -5 0
-86 -70 -22 -6 0
-87 -71 -23 -7 0
-88 -72 -24 -8 0
-85 -73 -21 -9 0
-86 -74 -22 -10 0
-87 -75 -23 -11 0
-88 -76 -24 -12 0
-85 -77 -21 -13 0
-86 -78 -22 -14 0
-87 -79 -23 -15 0
-88 -80 -24 -16 0
-85 -81 -21 -17 0
-86 -82 -22 -18 0
-87 -83 -23 -19 0
-88 -84 -24 -20 0
-89 -65 -25 -1 0
-90 -66 -26 -2 0
-91 -67 -27 -3 0
-92 -68 -28 -4 0
-89 -69 -25 -5 0
-90 -70 -26 -6 0
-91 -71 -27 -7 0
-92 -72 -28 -8 0
-89 -73 -25 -9 0
-90 -74 -26 -10 0
-91 -75 -27 -11 0
-92 -76 -28 -12 0
-89 -77 -25 -13 0
-90 -78 -26 -14 0
-91 -79 -27 -15 0
-92 -80 -28 -16 0
-89 -81 -25 -17 0
-90 -82 -26 -18 0
-91 -83 -27 -19 0
-92 -84 -28 -20 0
-89 -85 -25 -21 0
-90 -86 -26 -22 0
-91 -87 -27 -23 0
-92 -88 -28 -24 0
-93 -65 -29 -1 0
-94 -66 -30 -2 0
-95 -67 -31 -3 0
-96 -68 -32 -4 0
-93 -69 -29 -5 0
-94 -70 -30 -6 0
-95 -71 -31 -7 0
-96 -72 -32 -8 0
-93 -73 -29 -9 0
-94 -74 -30 -10 0
-95 -75 -31 -11 0
-96 -76 -32 -12 0
-93 -77 -29 -13 0
-94 -78 -30 -14 0
-95 -79 -31 -15 0
-96 -80 -32 -16 0
-93 -81 -29 -17 0
-94 -82 -30 -18 0
-95 -83 -31 -19 0
-96 -84 -32 -20 0
-93 -85 -29 -21 0
-94 -86 -30 -22 0
-95 -87 -31 -23 0
-96 -88 -32 -24 0
-93 -89 -29 -25 0
-94 -90 -30 -26 0
-95 -91 -31 -27 0
-96 -92 -32 -28 0
-69 -65 -37 -33 0
-70 -66 -38 -34 0
-71 -67 -39 -35 0
-72 -68 -40 -36 0
-73 -65 -41 -33 0
-74 -66 -42 -34 0
-75 -67 -43 -35 0
-76 -68 -44 -36 0
-73 -69 -41 -37 0
-74 -70 -42 -38 0
-75 -71 -43 -39 0
-76 -72 -44 -40 0
-77 -65 -45 -33 0
-78 -66 -46 -34 0
-79 -67 -47 -35 0
-80 -68 -48 -36 0
-77 -69 -45 -37 0
-78 -70 -46 -38 0
-79 -71 -47 -39 0
-80 -72 -48 -40 0
-77 -73 -45 -41 0
-78 -74 -46 -42 0
-79 -75 -47 -43 0
-80 -76 -48 -44 0
-81 -65 -49 -33 0
-82 -66 -50 -34 0
-83 -67 -51 -35 0
-84 -68 -52 -36 0
-81 -69 -49 -37 0
-82 -70 -50 -38 0
-83 -71 -51 -39 0
-84 -72 -52 -40 0
-81 -73 -49 -41 0
-82 -74 -50 -42 0
-83 -75 -51 -43 0
-84 -76 -52 -44 0
-81 -77 -49 -45 0
-82 -78 -50 -46 0
-83 -79 -51 -47 0
-84 -80 -52 -48 0
-85 -65 -53 -33 0
-86 -66 -54 -34 0
-87 -67 -55 -35 0
-88 -68 -56 -36 0
-85 -69 -53 -37 0
-86 -70 -54 -38 0
-87 -71 -55 -39 0
-88 -72 -56 -40 0
-85 -73 -53 -41 0
-86 -74 -54 -42 0
-87 -75 -55 -43 0
-88 -76 -56 -44 0
-85 -77 -53 -45 0
-86 -78 -54 -46 0
-87 -79 -55 -47 0
-88 -80 -56 -48 0
-85 -81 -53 -49 0
-86 -82 -54 -50 0
-87 -83 -55 -51 0
-88 -84 -56 -52 0
-89 -65 -57 -33 0
-90 -66 -58 -34 0
-91 -67 -59 -35 0
-92 -68 -60 -36 0
-89 -69 -57 -37 0
-90 -70 -58 -38 0
-91 -71 -59 -39 0
-92 -72 -60 -40 0
-89 -73 -57 -41 0
-90 -74 -58 -42 0
-91 -75 -59 -43 0
-92 -76 -60 -44 0
-89 -77 -57 -45 0
-90 -78 -58 -46 0
-91 -79 -59 -47 0
-92 -80 -60 -48 0
-89 -81 -57 -49 0
-90 -82 -58 -50 0
-91 -83 -59 -51 0
-92 -84 -60 -52 0
-89 -85 -57 -53 0
-90 -86 -58 -54 0
-91 -87 -59 -55 0
-92 -88 -60 -56 0
-93 -65 -61 -33 0
-94 -66 -62 -34 0
-95 -67 -63 -35 0
-96 -68 -64 -36 0
-93 -69 -61 -37 0
-94 -70 -62 -38 0
-95 -71 -63 -39 0
-96 -72 -64 -40 0
-93 -73 -61 -41 0
-94 -74 -62 -42 0
-95 -75 -63 -43 0
-96 -76 -64 -44 0
-93 -77 -61 -45 0
-94 -78 -62 -46 0
-95 -79 -63 -47 0
-96 -80 -64 -48 0
-93 -81 -61 -49 0
-94 -82 -62 -50 0
-95 -83 -63 -51 0
-96 -84 -64 -52 0
-93 -85 -61 -53 0
-94 -86 -62 -54 0
-95 -87 -63 -55 0
-96 -88 -64 -56 0
-93 -89 -61 -57 0
-94 -90 -62 -58 0
-95 -91 -63 -59 0
-96 -92 -64 -60 0
-101 -97 -5 -1 0
-102 -98 -6 -2 0
-103 -99 -7 -3 0
-104 -100 -8 -4 0
-105 -97 -9 -1 0
-106 -98 -10 -2 0
-107 -99 -11 -3 0
-108 -100 -12 -4 0
-105 -101 -9 -5 0
-106 -102 -10 -6 0
-107 -103 -11 -7 0
-108 -104 -12 -8 0
-109 -97 -13 -1 0
-110 -98 -14 -2 0
-111 -99 -15 -3 0
-112 -100 -16 -4 0
-109 -101 -13 -5 0
-110 -102 -14 -6 0
-111 -103 -15 -7 0
-112 -104 -16 -8 0
-109 -105 -13 -9 0
-110 -106 -14 -10 0
-111 -107 -15 -11 0
-112 -108 -16 -12 0
-113 -97 -17 -1 0
-114 -98 -18 -2 0
-115 -99 -19 -3 0
-116 -100 -20 -4 0
-113 -101 -17 -5 0
-114 -102 -18 -6 0
-115 -103 -19 -7 0
-116 -104 -20 -8 0
-113 -105 -17 -9 0
-114 -106 -18 -10 0
-115 -107 -19 -11 0
-116 -108 -20 -12 0
-113 -109 -17 -13 0
-114 -110 -18 -14 0
-115 -111 -19 -15 0
-116 -112 -20 -16 0
-117 -97 -21 -1 0
-118 -98 -22 -2 0
-119 -99 -23 -3 0
-120 -100 -24 -4 0
-117 -101 -21 -5 0
-118 -102 -22 -6 0
-119 -103 -23 -7 0
-120 -104 -24 -8 0
-117 -105 -21 -9 0
-118 -106 -22 -10 0
-119 -107 -23 -11 0
-120 -108 -24 -12 0
-117 -109 -21 -13 0
-118 -110 -22 -14 0
-119 -111 -23 -15 0
-120 -112 -24 -16 0
-117 -113 -21 -17 0
-118 -114 -22 -18 0
-119 -115 -23 -19 0
-120 -116 -24 -20 0
-121 -97 -25 -1 0
-122 -98 -26 -2 0
-123 -99 -27 -3 0
-124 -100 -28 -4 0
-121 -101 -25 -5 0
-122 -102 -26 -6 0
-123 -103 -27 -7 0
-124 -104 -28 -8 0
-121 -105 -25 -9 0
-122 -106 -26 -10 0
-123 -107 -27 -11 0
-124 -108 -28 -12 0
-121 -109 -25 -13 0
-122 -110 -26 -14 0
-123 -111 -27 -15 0
-124 -112 -28 -16 0
-121 -113 -25 -17 0
-122 -114 -26 -18 0
-123 -115 -27 -19 0
-124 -116 -28 -20 0
-121 -117 -25 -21 0
-122 -118 -26 -22 0
-123 -119 -27 -23 0
-124 -120 -28 -24 0
-125 -97 -29 -1 0
-126 -98 -30 -2 0
-127 -99 -31 -3 0
-128 -100 -32 -4 0
-125 -101 -29 -5 0
-126 -102 -30 -6 0
-127 -103 -31 -7 0
-128 -104 -32 -8 0
-125 -105 -29 -9 0
-126 -106 -30 -10 0
-127 -107 -31 -11 0
-128 -108 -32 -12 0
-125 -109 -29 -13 0
-126 -110 -30 -14 0
-127 -111 -31 -15 0
-128 -112 -32 -16 0
-125 -113 -29 -17 0
-126 -114 -30 -18 0
-127 -115 -31 -19 0
-128 -116 -32 -20 0
-125 -117 -29 -21 0
-126 -118 -30 -22 0
-127 -119 -31 -23 0
-128 -120 -32 -24 0
-125 -121 -29 -25 0
-126 -122 -30 -26 0
-127 -123 -31 -27 0
-128 -124 -32 -28 0
-101 -97 -37 -33 0
-102 -98 -38 -34 0
-103 -99 -39 -35 0
-104 -100 -40 -36 0
-105 -97 -41 -33 0
-106 -98 -42 -34 0
-107 -99 -43 -35 0
-108 -100 -44 -36 0
-105 -101 -41 -37 0
-106 -102 -42 -38 0
-107 -103 -43 -39 0
-108 -104 -44 -40 0
-109 -97 -45 -33 0
-110 -98 -46 -34 0
-111 -99 -47 -35 0
-112 -100 -48 -36 0
-109 -101 -45 -37 0
-110 -102 -46 -38 0
-111 -103 -47 -39 0
-112 -104 -48 -40 0
-109 -105 -45 -41 0
-110 -106 -46 -42 0
-111 -107 -47 -43 0
-112 -108 -48 -44 0
-113 -97 -49 -33 0
-114 -98 -50 -34 0
-115 -99 -51 -35 0
-116 -100 -52 -36 0
-113 -101 -49 -37 0
-114 -102 -50 -38 0
-115 -103 -51 -39 0
-116 -104 -52 -40 0
-113 -105 -49 -41 0
-114 -106 -50 -42 0
-115 -107 -51 -43 0
-116 -108 -52 -44 0
-113 -109 -49 -45 0
-114 -110 -50 -46 0
-115 -111 -51 -47 0
-116 -112 -52 -48 0
-117 -97 -53 -33 0
-118 -98 -54 -34 0
-119 -99 -55 -35 0
-120 -100 -56 -36 0
-117 -101 -53 -37 0
-118 -102 -54 -38 0
-119 -103 -55 -39 0
-120 -104 -56 -40 0
-117 -105 -53 -41 0
-118 -106 -54 -42 0
-119 -107 -55 -43 0
-120 -108 -56 -44 0
-117 -109 -53 -45 0
-118 -110 -54 -46 0
-119 -111 -55 -47 0
-120 -112 -56 -48 0
-117 -113 -53 -49 0
-118 -114 -54 -50 0
-119 -115 -55 -51 0
-120 -116 -56 -52 0
-121 -97 -57 -33 0
-122 -98 -58 -34 0
-123 -99 -59 -35 0
-124 -100 -60 -36 0
-121 -101 -57 -37 0
-122 -102 -58 -38 0
-123 -103 -59 -39 0
-124 -104 -60 -40 0
-121 -105 -57 -41 0
-122 -106 -58 -42 0
-123 -107 -59 -43 0
-124 -108 -60 -44 0
-121 -109 -57 -45 0
-122 -110 -58 -46 0
-123 -111 -59 -47 0
-124 -112 -60 -48 0
-121 -113 -57 -49 0
-122 -114 -58 -50 0
-123 -115 -59 -51 0
-124 -116 -60 -52 0
-121 -117 -57 -53 0
-122 -118 -58 -54 0
-123 -119 -59 -55 0
-124 -120 -60 -56 0
-125 -97 -61 -33 0
-126 -98 -62 -34 0
-127 -99 -63 -35 0
-128 -100 -64 -36 0
-125 -101 -61 -37 0
-126 -102 -62 -38 0
-127 -103 -63 -39 0
-128 -104 -64 -40 0
-125 -105 -61 -41 0
-126 -106 -62 -42 0
-127 -107 -63 -43 0
-128 -108 -64 -44 0
-125 -109 -61 -45 0
-126 -110 -62 -46 0
-127 -111 -63 -47 0
-128 -112 -64 -48 0
-125 -113 -61 -49 0
-126 -114 -62 -50 0
-127 -115 -63 -51 0
-128 -116 -64 -52 0
-125 -117 -61 -53 0
-126 -118 -62 -54 0
-127 -119 -63 -55 0
-128 -120 -64 -56 0
-125 -121 -61 -57 0
-126 -122 -62 -58 0
-127 -123 -63 -59 0
-128 -124 -64 -60 0
-101 -97 -69 -65 0
-102 -98 -70 -66 0
-103 -99 -71 -67 0
-104 -100 -72 -68 0
-105 -97 -73 -65 0
-106 -98 -74 -66 0
-107 -99 -75 -67 0
-108 -100 -76 -68 0
-105 -101 -73 -69 0
-106 -102 -74 -70 0
-107 -103 -75 -71 0
-108 -104 -76 -72 0
-109 -97 -77 -65 0
-110 -98 -78 -66 0
-111 -99 -79 -67 0
-112 -100 -80 -68 0
-109 -101 -77 -69 0
-110 -102 -78 -70 0
-111 -103 -79 -71 0
-112 -104 -80 -72 0
-109 -105 -77 -73 0
-110 -106 -78 -74 0
-111 -107 -79 -75 0
-112 -108 -80 -76 0
-113 -97 -81 -65 0
-114 -98 -82 -66 0
-115 -99 -83 -67 0
-116 -100 -84 -68 0
-113 -101 -81 -69 0
-114 -102 -82 -70 0
-115 -103 -83 -71 0
-116 -104 -84 -72 0
-113 -105 -81 -73 0
-114 -106 -82 -74 0
-115 -107 -83 -75 0
-116 -108 -84 -76 0
-113 -109 -81 -77 0
-114 -110 -82 -78 0
-115 -111 -83 -79 0
-116 -112 -84 -80 0
-117 -97 -85 -65 0
-118 -98 -86 -66 0
-119 -99 -87 -67 0
-120 -100 -88 -68 0
-117 -101 -85 -69 0
-118 -102 -86 -70 0
-119 -103 -87 -71 0
-120 -104 -88 -72 0
-117 -105 -85 -73 0
-118 -106 -86 -74 0
-119 -107 -87 -75 0
-120 -108 -88 -76 0
-117 -109 -85 -77 0
-118 -110 -86 -78 0
-119 -111 -87 -79 0
-120 -112 -88 -80 0
-117 -113 -85 -81 0
-118 -114 -86 -82 0
-119 -115 -87 -83 0
-120 -116 -88 -84 0
-121 -97 -89 -65 0
-122 -98 -90 -66 0
-123 -99 -91 -67 0
-124 -100 -92 -68 0
-121 -101 -89 -69 0
-122 -102 -90 -70 0
-123 -103 -91 -71 0
-124 -104 -92 -72 0
-121 -105 -89 -73 0
-122 -106 -90 -74 0
-123 -107 -91 -75 0
-124 -108 -92 -76 0
-121 -109 -89 -77 0
-122 -110 -90 -78 0
-123 -111 -91 -79 0
-124 -112 -92 -80 0
-121 -113 -89 -81 0
-122 -114 -90 -82 0
-123 -115 -91 -83 0
-124 -116 -92 -84 0
-121 -117 -89 -85 0
-122 -118 -90 -86 0
-123 -119 -91 -87 0
-124 -120 -92 -88 0
-125 -97 -93 -65 0
-126 -98 -94 -66 0
-127 -99 -95 -67 0
-128 -100 -96 -68 0
-125 -101 -93 -69 0
-126 -102 -94 -70 0
-127 -103 -95 -71 0
-128 -104 -96 -72 0
-125 -105 -93 -73 0
-126 -106 -94 -74 0
-127 -107 -95 -75 0
-128 -108 -96 -76 0
-125 -109 -93 -77 0
-126 -110 -94 -78 0
-127 -111 -95 -79 0
-128 -112 -96 -80 0
-125 -113 -93 -81 0
-126 -114 -94 -82 0
-127 -115 -95 -83 0
-128 -116 -96 -84 0
-125 -117 -93 -85 0
-126 -118 -94 -86 0
-127 -119 -95 -87 0
-128 -120 -96 -88 0
-125 -121 -93 -89 0
-126 -122 -94 -90 0
-127 -123 -95 -91 0
-128 -124 -96 -92 0
